p edge 150 3353
e 1 7
e 1 9
e 1 10
e 1 13
e 1 19
e 1 24
e 1 40
e 1 42
e 1 43
e 1 46
e 1 49
e 1 52
e 1 54
e 1 56
e 1 63
e 1 65
e 1 66
e 1 68
e 1 76
e 1 78
e 1 80
e 1 83
e 1 88
e 1 91
e 1 92
e 1 94
e 1 95
e 1 97
e 1 101
e 1 106
e 1 108
e 1 116
e 1 120
e 1 124
e 1 129
e 1 131
e 1 135
e 1 142
e 1 144
e 1 145
e 1 149
e 2 4
e 2 10
e 2 15
e 2 17
e 2 18
e 2 21
e 2 28
e 2 32
e 2 33
e 2 35
e 2 37
e 2 41
e 2 43
e 2 49
e 2 52
e 2 57
e 2 60
e 2 65
e 2 66
e 2 69
e 2 71
e 2 72
e 2 75
e 2 80
e 2 81
e 2 83
e 2 85
e 2 91
e 2 93
e 2 96
e 2 102
e 2 106
e 2 107
e 2 111
e 2 112
e 2 116
e 2 119
e 2 123
e 2 127
e 2 128
e 2 130
e 2 133
e 2 136
e 2 149
e 3 5
e 3 7
e 3 8
e 3 9
e 3 10
e 3 16
e 3 17
e 3 21
e 3 22
e 3 23
e 3 34
e 3 40
e 3 45
e 3 48
e 3 51
e 3 56
e 3 60
e 3 63
e 3 67
e 3 71
e 3 80
e 3 81
e 3 85
e 3 87
e 3 91
e 3 95
e 3 101
e 3 103
e 3 110
e 3 111
e 3 113
e 3 114
e 3 116
e 3 120
e 3 124
e 3 132
e 3 133
e 3 134
e 3 138
e 3 141
e 3 146
e 4 6
e 4 10
e 4 26
e 4 27
e 4 31
e 4 34
e 4 37
e 4 40
e 4 42
e 4 45
e 4 49
e 4 53
e 4 59
e 4 60
e 4 62
e 4 63
e 4 64
e 4 65
e 4 68
e 4 70
e 4 73
e 4 75
e 4 76
e 4 77
e 4 80
e 4 91
e 4 95
e 4 98
e 4 100
e 4 102
e 4 104
e 4 105
e 4 107
e 4 108
e 4 109
e 4 110
e 4 113
e 4 118
e 4 119
e 4 124
e 4 125
e 4 127
e 4 128
e 4 130
e 4 133
e 4 139
e 4 140
e 5 6
e 5 13
e 5 14
e 5 15
e 5 16
e 5 17
e 5 28
e 5 29
e 5 33
e 5 41
e 5 43
e 5 44
e 5 45
e 5 48
e 5 49
e 5 53
e 5 55
e 5 58
e 5 62
e 5 64
e 5 66
e 5 69
e 5 70
e 5 71
e 5 84
e 5 91
e 5 92
e 5 93
e 5 94
e 5 106
e 5 112
e 5 125
e 5 126
e 5 129
e 5 133
e 5 134
e 5 136
e 5 142
e 5 143
e 5 145
e 5 148
e 5 150
e 6 7
e 6 13
e 6 15
e 6 17
e 6 22
e 6 30
e 6 33
e 6 40
e 6 42
e 6 43
e 6 48
e 6 51
e 6 56
e 6 61
e 6 62
e 6 63
e 6 64
e 6 65
e 6 67
e 6 68
e 6 69
e 6 71
e 6 73
e 6 76
e 6 79
e 6 86
e 6 95
e 6 98
e 6 100
e 6 104
e 6 113
e 6 116
e 6 124
e 6 125
e 6 128
e 6 129
e 6 132
e 6 135
e 6 138
e 6 142
e 6 144
e 6 147
e 7 9
e 7 10
e 7 12
e 7 13
e 7 21
e 7 24
e 7 25
e 7 26
e 7 27
e 7 29
e 7 32
e 7 38
e 7 39
e 7 40
e 7 41
e 7 43
e 7 46
e 7 47
e 7 48
e 7 52
e 7 54
e 7 55
e 7 59
e 7 61
e 7 65
e 7 66
e 7 67
e 7 68
e 7 69
e 7 75
e 7 80
e 7 81
e 7 84
e 7 85
e 7 88
e 7 89
e 7 91
e 7 92
e 7 94
e 7 105
e 7 109
e 7 110
e 7 112
e 7 114
e 7 116
e 7 117
e 7 118
e 7 136
e 7 138
e 7 144
e 7 146
e 7 150
e 8 9
e 8 13
e 8 17
e 8 18
e 8 19
e 8 27
e 8 31
e 8 36
e 8 37
e 8 44
e 8 47
e 8 57
e 8 61
e 8 64
e 8 68
e 8 75
e 8 92
e 8 96
e 8 99
e 8 107
e 8 108
e 8 115
e 8 117
e 8 118
e 8 120
e 8 122
e 8 127
e 8 128
e 8 132
e 8 136
e 8 141
e 8 146
e 8 149
e 8 150
e 9 13
e 9 20
e 9 21
e 9 26
e 9 29
e 9 36
e 9 37
e 9 43
e 9 44
e 9 48
e 9 49
e 9 50
e 9 54
e 9 58
e 9 63
e 9 67
e 9 68
e 9 72
e 9 74
e 9 75
e 9 76
e 9 82
e 9 84
e 9 89
e 9 94
e 9 101
e 9 109
e 9 110
e 9 113
e 9 115
e 9 120
e 9 132
e 9 135
e 9 137
e 9 142
e 9 144
e 9 146
e 9 150
e 10 18
e 10 25
e 10 33
e 10 38
e 10 40
e 10 41
e 10 43
e 10 44
e 10 48
e 10 53
e 10 54
e 10 56
e 10 59
e 10 63
e 10 66
e 10 68
e 10 69
e 10 72
e 10 76
e 10 79
e 10 81
e 10 83
e 10 86
e 10 88
e 10 89
e 10 93
e 10 96
e 10 98
e 10 99
e 10 103
e 10 110
e 10 111
e 10 116
e 10 117
e 10 122
e 10 128
e 10 129
e 10 132
e 10 145
e 10 146
e 10 147
e 11 13
e 11 15
e 11 18
e 11 23
e 11 25
e 11 30
e 11 32
e 11 35
e 11 36
e 11 41
e 11 43
e 11 44
e 11 47
e 11 49
e 11 56
e 11 57
e 11 62
e 11 67
e 11 70
e 11 71
e 11 73
e 11 74
e 11 79
e 11 81
e 11 82
e 11 92
e 11 94
e 11 100
e 11 105
e 11 116
e 11 117
e 11 120
e 11 122
e 11 126
e 11 127
e 11 132
e 11 134
e 11 135
e 11 136
e 11 137
e 11 139
e 11 140
e 11 141
e 11 145
e 11 148
e 12 13
e 12 23
e 12 24
e 12 25
e 12 28
e 12 33
e 12 36
e 12 38
e 12 40
e 12 42
e 12 47
e 12 49
e 12 56
e 12 57
e 12 64
e 12 65
e 12 66
e 12 67
e 12 68
e 12 73
e 12 76
e 12 88
e 12 99
e 12 100
e 12 111
e 12 116
e 12 120
e 12 123
e 12 125
e 12 132
e 12 141
e 12 145
e 12 146
e 12 147
e 12 149
e 13 15
e 13 16
e 13 17
e 13 18
e 13 19
e 13 23
e 13 25
e 13 27
e 13 31
e 13 32
e 13 34
e 13 36
e 13 39
e 13 40
e 13 44
e 13 45
e 13 46
e 13 59
e 13 60
e 13 62
e 13 64
e 13 65
e 13 67
e 13 72
e 13 73
e 13 76
e 13 77
e 13 79
e 13 81
e 13 82
e 13 84
e 13 87
e 13 89
e 13 92
e 13 94
e 13 95
e 13 96
e 13 103
e 13 109
e 13 111
e 13 112
e 13 113
e 13 114
e 13 117
e 13 118
e 13 120
e 13 125
e 13 128
e 13 131
e 13 138
e 13 143
e 13 148
e 14 16
e 14 21
e 14 26
e 14 33
e 14 43
e 14 44
e 14 48
e 14 55
e 14 62
e 14 65
e 14 74
e 14 80
e 14 83
e 14 88
e 14 91
e 14 93
e 14 94
e 14 97
e 14 99
e 14 100
e 14 103
e 14 106
e 14 107
e 14 111
e 14 121
e 14 125
e 14 130
e 14 132
e 14 135
e 14 138
e 14 139
e 14 141
e 14 143
e 14 146
e 14 149
e 15 17
e 15 18
e 15 28
e 15 36
e 15 39
e 15 44
e 15 54
e 15 57
e 15 58
e 15 60
e 15 63
e 15 68
e 15 74
e 15 87
e 15 89
e 15 91
e 15 95
e 15 100
e 15 102
e 15 103
e 15 106
e 15 108
e 15 111
e 15 115
e 15 118
e 15 120
e 15 129
e 15 130
e 15 133
e 15 135
e 15 139
e 15 142
e 15 143
e 15 145
e 15 146
e 15 149
e 16 17
e 16 19
e 16 22
e 16 31
e 16 34
e 16 36
e 16 39
e 16 43
e 16 45
e 16 46
e 16 48
e 16 53
e 16 54
e 16 56
e 16 59
e 16 60
e 16 69
e 16 70
e 16 71
e 16 74
e 16 75
e 16 80
e 16 90
e 16 91
e 16 92
e 16 96
e 16 97
e 16 98
e 16 113
e 16 117
e 16 118
e 16 120
e 16 123
e 16 125
e 16 131
e 16 137
e 16 140
e 16 143
e 16 144
e 16 145
e 17 21
e 17 24
e 17 25
e 17 27
e 17 28
e 17 33
e 17 34
e 17 38
e 17 39
e 17 40
e 17 42
e 17 53
e 17 55
e 17 57
e 17 58
e 17 59
e 17 61
e 17 62
e 17 65
e 17 67
e 17 71
e 17 73
e 17 74
e 17 75
e 17 79
e 17 80
e 17 83
e 17 84
e 17 88
e 17 89
e 17 92
e 17 93
e 17 94
e 17 98
e 17 104
e 17 105
e 17 111
e 17 113
e 17 115
e 17 118
e 17 123
e 17 126
e 17 128
e 17 131
e 17 133
e 17 134
e 17 137
e 17 138
e 17 144
e 17 145
e 17 150
e 18 24
e 18 28
e 18 31
e 18 37
e 18 38
e 18 42
e 18 46
e 18 47
e 18 48
e 18 50
e 18 53
e 18 60
e 18 64
e 18 66
e 18 72
e 18 73
e 18 74
e 18 76
e 18 77
e 18 78
e 18 79
e 18 82
e 18 86
e 18 88
e 18 90
e 18 92
e 18 93
e 18 99
e 18 114
e 18 115
e 18 118
e 18 120
e 18 127
e 18 129
e 18 133
e 18 135
e 18 136
e 18 137
e 18 138
e 18 148
e 19 29
e 19 30
e 19 32
e 19 34
e 19 39
e 19 41
e 19 43
e 19 47
e 19 48
e 19 53
e 19 59
e 19 70
e 19 73
e 19 74
e 19 76
e 19 77
e 19 80
e 19 83
e 19 84
e 19 87
e 19 88
e 19 94
e 19 96
e 19 97
e 19 98
e 19 99
e 19 101
e 19 107
e 19 108
e 19 109
e 19 113
e 19 115
e 19 118
e 19 124
e 19 128
e 19 135
e 19 136
e 19 137
e 19 140
e 19 141
e 19 149
e 20 30
e 20 31
e 20 34
e 20 35
e 20 39
e 20 44
e 20 51
e 20 54
e 20 55
e 20 66
e 20 68
e 20 70
e 20 71
e 20 74
e 20 78
e 20 81
e 20 91
e 20 94
e 20 96
e 20 97
e 20 98
e 20 101
e 20 102
e 20 105
e 20 111
e 20 120
e 20 122
e 20 124
e 20 131
e 20 133
e 20 135
e 20 149
e 20 150
e 21 23
e 21 29
e 21 30
e 21 31
e 21 34
e 21 37
e 21 38
e 21 43
e 21 44
e 21 46
e 21 53
e 21 56
e 21 58
e 21 63
e 21 67
e 21 74
e 21 75
e 21 76
e 21 79
e 21 84
e 21 85
e 21 91
e 21 96
e 21 102
e 21 103
e 21 108
e 21 109
e 21 110
e 21 111
e 21 112
e 21 113
e 21 117
e 21 125
e 21 126
e 21 132
e 21 134
e 21 137
e 21 139
e 21 142
e 21 145
e 21 150
e 22 23
e 22 25
e 22 34
e 22 36
e 22 37
e 22 41
e 22 43
e 22 46
e 22 48
e 22 49
e 22 52
e 22 54
e 22 57
e 22 58
e 22 63
e 22 64
e 22 65
e 22 68
e 22 74
e 22 77
e 22 78
e 22 79
e 22 80
e 22 81
e 22 87
e 22 95
e 22 96
e 22 98
e 22 99
e 22 103
e 22 104
e 22 108
e 22 113
e 22 114
e 22 115
e 22 116
e 22 118
e 22 125
e 22 133
e 22 136
e 22 137
e 22 143
e 22 145
e 22 146
e 22 148
e 22 149
e 23 25
e 23 31
e 23 32
e 23 35
e 23 36
e 23 38
e 23 39
e 23 43
e 23 45
e 23 48
e 23 53
e 23 62
e 23 67
e 23 71
e 23 77
e 23 79
e 23 82
e 23 83
e 23 86
e 23 90
e 23 93
e 23 94
e 23 104
e 23 105
e 23 112
e 23 119
e 23 122
e 23 127
e 23 129
e 23 137
e 23 139
e 23 142
e 23 144
e 24 30
e 24 33
e 24 50
e 24 51
e 24 57
e 24 58
e 24 63
e 24 65
e 24 68
e 24 71
e 24 78
e 24 82
e 24 86
e 24 87
e 24 92
e 24 94
e 24 95
e 24 99
e 24 103
e 24 105
e 24 107
e 24 111
e 24 116
e 24 118
e 24 120
e 24 121
e 24 126
e 24 138
e 24 139
e 24 141
e 24 147
e 24 148
e 24 149
e 25 26
e 25 31
e 25 36
e 25 38
e 25 39
e 25 42
e 25 47
e 25 49
e 25 51
e 25 52
e 25 58
e 25 62
e 25 73
e 25 78
e 25 79
e 25 80
e 25 81
e 25 84
e 25 85
e 25 86
e 25 95
e 25 96
e 25 103
e 25 104
e 25 106
e 25 107
e 25 110
e 25 112
e 25 117
e 25 127
e 25 130
e 25 132
e 25 133
e 25 135
e 25 139
e 25 141
e 25 142
e 25 143
e 25 144
e 25 147
e 25 150
e 26 27
e 26 28
e 26 29
e 26 30
e 26 31
e 26 32
e 26 33
e 26 34
e 26 40
e 26 42
e 26 43
e 26 47
e 26 52
e 26 54
e 26 63
e 26 64
e 26 65
e 26 66
e 26 69
e 26 70
e 26 74
e 26 75
e 26 76
e 26 82
e 26 83
e 26 86
e 26 89
e 26 90
e 26 93
e 26 97
e 26 98
e 26 99
e 26 103
e 26 116
e 26 127
e 26 134
e 26 146
e 26 147
e 26 148
e 27 28
e 27 29
e 27 31
e 27 37
e 27 38
e 27 39
e 27 42
e 27 44
e 27 46
e 27 48
e 27 49
e 27 51
e 27 58
e 27 59
e 27 60
e 27 67
e 27 70
e 27 74
e 27 76
e 27 81
e 27 86
e 27 89
e 27 91
e 27 95
e 27 96
e 27 101
e 27 105
e 27 106
e 27 108
e 27 115
e 27 116
e 27 117
e 27 118
e 27 119
e 27 127
e 27 133
e 27 134
e 27 135
e 27 138
e 27 140
e 27 141
e 27 142
e 27 146
e 27 149
e 28 30
e 28 31
e 28 33
e 28 35
e 28 39
e 28 42
e 28 45
e 28 46
e 28 48
e 28 50
e 28 54
e 28 55
e 28 58
e 28 59
e 28 60
e 28 63
e 28 73
e 28 75
e 28 82
e 28 86
e 28 88
e 28 92
e 28 93
e 28 105
e 28 109
e 28 114
e 28 115
e 28 116
e 28 117
e 28 124
e 28 125
e 28 126
e 28 127
e 28 128
e 28 130
e 28 135
e 28 136
e 28 147
e 29 32
e 29 33
e 29 36
e 29 39
e 29 43
e 29 44
e 29 45
e 29 47
e 29 50
e 29 54
e 29 56
e 29 61
e 29 64
e 29 65
e 29 66
e 29 70
e 29 72
e 29 79
e 29 80
e 29 81
e 29 89
e 29 91
e 29 94
e 29 96
e 29 97
e 29 98
e 29 99
e 29 100
e 29 103
e 29 105
e 29 109
e 29 111
e 29 112
e 29 118
e 29 120
e 29 122
e 29 125
e 29 127
e 29 128
e 29 133
e 29 134
e 29 138
e 29 143
e 29 144
e 29 149
e 29 150
e 30 31
e 30 35
e 30 36
e 30 37
e 30 39
e 30 40
e 30 42
e 30 46
e 30 54
e 30 65
e 30 71
e 30 72
e 30 76
e 30 77
e 30 78
e 30 81
e 30 82
e 30 83
e 30 85
e 30 86
e 30 95
e 30 101
e 30 103
e 30 106
e 30 114
e 30 115
e 30 116
e 30 118
e 30 124
e 30 131
e 30 134
e 30 136
e 30 143
e 30 149
e 31 32
e 31 34
e 31 35
e 31 40
e 31 41
e 31 42
e 31 43
e 31 44
e 31 46
e 31 51
e 31 57
e 31 61
e 31 65
e 31 69
e 31 70
e 31 72
e 31 73
e 31 76
e 31 77
e 31 81
e 31 85
e 31 91
e 31 92
e 31 95
e 31 99
e 31 111
e 31 114
e 31 116
e 31 120
e 31 121
e 31 129
e 31 131
e 31 132
e 31 133
e 31 141
e 31 145
e 32 37
e 32 43
e 32 55
e 32 61
e 32 63
e 32 69
e 32 70
e 32 75
e 32 76
e 32 79
e 32 80
e 32 81
e 32 84
e 32 91
e 32 96
e 32 97
e 32 98
e 32 101
e 32 109
e 32 110
e 32 122
e 32 124
e 32 137
e 32 141
e 32 142
e 32 143
e 32 147
e 32 149
e 33 40
e 33 46
e 33 51
e 33 54
e 33 57
e 33 58
e 33 64
e 33 66
e 33 74
e 33 75
e 33 77
e 33 83
e 33 84
e 33 88
e 33 90
e 33 102
e 33 105
e 33 106
e 33 109
e 33 116
e 33 117
e 33 123
e 33 133
e 33 136
e 33 144
e 33 145
e 33 147
e 33 149
e 34 38
e 34 42
e 34 47
e 34 50
e 34 53
e 34 56
e 34 58
e 34 59
e 34 65
e 34 68
e 34 69
e 34 75
e 34 78
e 34 82
e 34 85
e 34 86
e 34 87
e 34 88
e 34 89
e 34 91
e 34 104
e 34 114
e 34 117
e 34 118
e 34 120
e 34 121
e 34 127
e 34 128
e 34 137
e 34 143
e 34 144
e 34 146
e 34 147
e 35 41
e 35 42
e 35 43
e 35 46
e 35 48
e 35 51
e 35 52
e 35 57
e 35 69
e 35 73
e 35 74
e 35 77
e 35 79
e 35 80
e 35 90
e 35 92
e 35 93
e 35 99
e 35 113
e 35 115
e 35 117
e 35 119
e 35 122
e 35 130
e 35 136
e 35 138
e 35 144
e 35 149
e 36 43
e 36 47
e 36 61
e 36 65
e 36 69
e 36 72
e 36 75
e 36 78
e 36 82
e 36 85
e 36 86
e 36 88
e 36 90
e 36 91
e 36 92
e 36 94
e 36 98
e 36 101
e 36 104
e 36 105
e 36 108
e 36 111
e 36 112
e 36 113
e 36 114
e 36 116
e 36 128
e 36 129
e 36 131
e 36 134
e 36 138
e 36 139
e 37 40
e 37 45
e 37 49
e 37 51
e 37 53
e 37 54
e 37 56
e 37 57
e 37 62
e 37 64
e 37 69
e 37 71
e 37 75
e 37 79
e 37 80
e 37 88
e 37 93
e 37 95
e 37 98
e 37 100
e 37 101
e 37 104
e 37 114
e 37 115
e 37 117
e 37 118
e 37 121
e 37 125
e 37 127
e 37 130
e 37 131
e 37 135
e 37 137
e 37 138
e 37 140
e 37 141
e 37 144
e 37 145
e 37 149
e 38 39
e 38 40
e 38 45
e 38 48
e 38 51
e 38 56
e 38 57
e 38 59
e 38 63
e 38 69
e 38 71
e 38 74
e 38 75
e 38 78
e 38 84
e 38 85
e 38 86
e 38 90
e 38 92
e 38 93
e 38 97
e 38 109
e 38 110
e 38 111
e 38 115
e 38 117
e 38 120
e 38 121
e 38 125
e 38 128
e 38 132
e 38 133
e 38 134
e 38 137
e 38 140
e 38 141
e 38 144
e 38 148
e 39 42
e 39 44
e 39 45
e 39 53
e 39 56
e 39 58
e 39 59
e 39 60
e 39 62
e 39 65
e 39 70
e 39 71
e 39 74
e 39 75
e 39 79
e 39 85
e 39 92
e 39 93
e 39 94
e 39 96
e 39 99
e 39 101
e 39 104
e 39 105
e 39 113
e 39 114
e 39 117
e 39 121
e 39 124
e 39 131
e 39 133
e 39 135
e 39 136
e 39 138
e 39 139
e 39 148
e 40 41
e 40 44
e 40 46
e 40 49
e 40 50
e 40 53
e 40 56
e 40 60
e 40 67
e 40 70
e 40 72
e 40 73
e 40 77
e 40 78
e 40 81
e 40 83
e 40 92
e 40 93
e 40 95
e 40 99
e 40 107
e 40 108
e 40 111
e 40 113
e 40 117
e 40 120
e 40 124
e 40 125
e 40 126
e 40 127
e 40 131
e 40 132
e 40 133
e 40 136
e 40 141
e 40 142
e 40 143
e 40 145
e 40 147
e 40 150
e 41 42
e 41 44
e 41 46
e 41 51
e 41 52
e 41 53
e 41 54
e 41 55
e 41 56
e 41 57
e 41 61
e 41 67
e 41 68
e 41 76
e 41 81
e 41 87
e 41 90
e 41 91
e 41 92
e 41 96
e 41 97
e 41 102
e 41 103
e 41 108
e 41 110
e 41 114
e 41 116
e 41 131
e 41 134
e 41 135
e 41 138
e 41 145
e 41 148
e 41 149
e 42 45
e 42 47
e 42 50
e 42 51
e 42 52
e 42 54
e 42 58
e 42 62
e 42 65
e 42 66
e 42 68
e 42 74
e 42 75
e 42 76
e 42 82
e 42 83
e 42 84
e 42 85
e 42 86
e 42 94
e 42 95
e 42 97
e 42 101
e 42 105
e 42 108
e 42 111
e 42 112
e 42 113
e 42 114
e 42 120
e 42 122
e 42 126
e 42 129
e 42 136
e 42 137
e 42 142
e 42 150
e 43 50
e 43 52
e 43 53
e 43 55
e 43 61
e 43 62
e 43 63
e 43 65
e 43 71
e 43 72
e 43 75
e 43 82
e 43 83
e 43 90
e 43 92
e 43 96
e 43 97
e 43 98
e 43 102
e 43 106
e 43 107
e 43 108
e 43 109
e 43 115
e 43 117
e 43 121
e 43 131
e 43 132
e 43 135
e 43 136
e 43 138
e 43 141
e 43 143
e 43 144
e 43 149
e 43 150
e 44 54
e 44 57
e 44 58
e 44 68
e 44 71
e 44 74
e 44 75
e 44 78
e 44 79
e 44 86
e 44 91
e 44 96
e 44 100
e 44 104
e 44 109
e 44 111
e 44 113
e 44 115
e 44 116
e 44 118
e 44 120
e 44 121
e 44 122
e 44 128
e 44 130
e 44 131
e 44 133
e 44 145
e 44 149
e 45 47
e 45 52
e 45 54
e 45 56
e 45 57
e 45 58
e 45 60
e 45 61
e 45 62
e 45 81
e 45 82
e 45 85
e 45 86
e 45 87
e 45 95
e 45 98
e 45 99
e 45 102
e 45 104
e 45 108
e 45 110
e 45 111
e 45 113
e 45 114
e 45 115
e 45 123
e 45 124
e 45 128
e 45 132
e 45 133
e 45 134
e 45 138
e 45 147
e 45 150
e 46 47
e 46 48
e 46 55
e 46 58
e 46 59
e 46 60
e 46 64
e 46 65
e 46 68
e 46 72
e 46 75
e 46 77
e 46 78
e 46 79
e 46 95
e 46 99
e 46 107
e 46 108
e 46 112
e 46 115
e 46 118
e 46 125
e 46 126
e 46 127
e 46 128
e 46 130
e 46 131
e 46 132
e 46 136
e 46 137
e 46 139
e 46 141
e 47 58
e 47 61
e 47 62
e 47 69
e 47 70
e 47 78
e 47 79
e 47 82
e 47 84
e 47 86
e 47 88
e 47 91
e 47 92
e 47 97
e 47 99
e 47 101
e 47 106
e 47 107
e 47 110
e 47 111
e 47 112
e 47 118
e 47 125
e 47 126
e 47 128
e 47 129
e 47 131
e 47 132
e 47 133
e 47 135
e 47 140
e 47 141
e 47 142
e 47 146
e 48 49
e 48 56
e 48 60
e 48 63
e 48 66
e 48 69
e 48 75
e 48 85
e 48 86
e 48 89
e 48 95
e 48 96
e 48 97
e 48 99
e 48 100
e 48 108
e 48 112
e 48 115
e 48 117
e 48 119
e 48 123
e 48 125
e 48 127
e 48 129
e 48 133
e 48 136
e 48 137
e 48 139
e 48 141
e 48 149
e 49 51
e 49 54
e 49 58
e 49 60
e 49 61
e 49 62
e 49 63
e 49 67
e 49 72
e 49 82
e 49 87
e 49 91
e 49 94
e 49 95
e 49 99
e 49 107
e 49 113
e 49 117
e 49 120
e 49 121
e 49 124
e 49 131
e 49 132
e 49 139
e 49 142
e 49 145
e 49 146
e 50 51
e 50 52
e 50 53
e 50 56
e 50 59
e 50 70
e 50 72
e 50 75
e 50 76
e 50 77
e 50 82
e 50 87
e 50 88
e 50 89
e 50 90
e 50 91
e 50 97
e 50 100
e 50 102
e 50 103
e 50 115
e 50 116
e 50 119
e 50 128
e 50 130
e 50 134
e 50 135
e 50 136
e 50 137
e 50 141
e 50 146
e 50 148
e 51 52
e 51 54
e 51 55
e 51 59
e 51 62
e 51 74
e 51 75
e 51 78
e 51 79
e 51 80
e 51 85
e 51 87
e 51 88
e 51 89
e 51 90
e 51 92
e 51 100
e 51 101
e 51 109
e 51 110
e 51 112
e 51 113
e 51 115
e 51 116
e 51 117
e 51 126
e 51 127
e 51 128
e 51 130
e 51 133
e 51 135
e 51 136
e 51 137
e 51 139
e 51 140
e 51 141
e 51 146
e 52 55
e 52 56
e 52 58
e 52 62
e 52 65
e 52 66
e 52 67
e 52 71
e 52 78
e 52 81
e 52 83
e 52 94
e 52 95
e 52 97
e 52 102
e 52 103
e 52 105
e 52 108
e 52 110
e 52 113
e 52 118
e 52 122
e 52 123
e 52 125
e 52 126
e 52 129
e 52 131
e 52 132
e 52 133
e 52 138
e 53 55
e 53 56
e 53 68
e 53 77
e 53 78
e 53 82
e 53 85
e 53 87
e 53 88
e 53 90
e 53 98
e 53 100
e 53 105
e 53 110
e 53 112
e 53 113
e 53 116
e 53 119
e 53 122
e 53 123
e 53 124
e 53 126
e 53 128
e 53 131
e 53 134
e 53 138
e 53 141
e 53 143
e 53 147
e 53 150
e 54 55
e 54 59
e 54 63
e 54 64
e 54 67
e 54 76
e 54 77
e 54 78
e 54 83
e 54 89
e 54 92
e 54 97
e 54 98
e 54 99
e 54 106
e 54 110
e 54 112
e 54 114
e 54 118
e 54 129
e 54 131
e 54 134
e 54 137
e 54 141
e 54 142
e 54 143
e 54 144
e 54 147
e 54 150
e 55 59
e 55 64
e 55 65
e 55 68
e 55 70
e 55 72
e 55 73
e 55 75
e 55 77
e 55 78
e 55 79
e 55 86
e 55 90
e 55 101
e 55 106
e 55 110
e 55 111
e 55 123
e 55 124
e 55 126
e 55 128
e 55 130
e 55 131
e 55 135
e 55 136
e 55 137
e 55 141
e 55 144
e 55 145
e 55 146
e 56 57
e 56 58
e 56 59
e 56 61
e 56 66
e 56 67
e 56 83
e 56 88
e 56 96
e 56 99
e 56 102
e 56 103
e 56 106
e 56 107
e 56 112
e 56 117
e 56 118
e 56 124
e 56 125
e 56 130
e 56 141
e 56 142
e 56 145
e 56 146
e 56 147
e 56 148
e 57 60
e 57 62
e 57 63
e 57 67
e 57 68
e 57 69
e 57 71
e 57 72
e 57 75
e 57 76
e 57 77
e 57 78
e 57 81
e 57 82
e 57 83
e 57 86
e 57 96
e 57 103
e 57 106
e 57 108
e 57 110
e 57 112
e 57 113
e 57 116
e 57 117
e 57 118
e 57 119
e 57 120
e 57 124
e 57 128
e 57 129
e 57 131
e 57 135
e 57 136
e 57 137
e 57 141
e 57 144
e 57 145
e 57 147
e 58 62
e 58 64
e 58 67
e 58 68
e 58 76
e 58 78
e 58 79
e 58 80
e 58 82
e 58 94
e 58 96
e 58 102
e 58 103
e 58 105
e 58 109
e 58 115
e 58 116
e 58 120
e 58 123
e 58 124
e 58 133
e 58 135
e 58 147
e 58 148
e 59 71
e 59 72
e 59 75
e 59 76
e 59 78
e 59 79
e 59 85
e 59 88
e 59 91
e 59 92
e 59 93
e 59 96
e 59 105
e 59 110
e 59 111
e 59 113
e 59 114
e 59 115
e 59 121
e 59 125
e 59 134
e 59 135
e 59 137
e 59 144
e 59 145
e 59 147
e 59 148
e 59 149
e 60 72
e 60 74
e 60 78
e 60 80
e 60 81
e 60 89
e 60 92
e 60 102
e 60 104
e 60 109
e 60 115
e 60 117
e 60 126
e 60 132
e 60 150
e 61 65
e 61 70
e 61 72
e 61 84
e 61 85
e 61 90
e 61 96
e 61 98
e 61 99
e 61 104
e 61 106
e 61 107
e 61 110
e 61 114
e 61 117
e 61 118
e 61 124
e 61 126
e 61 127
e 61 128
e 61 130
e 61 133
e 61 134
e 61 136
e 61 138
e 61 140
e 61 142
e 61 144
e 61 145
e 61 146
e 61 147
e 62 65
e 62 70
e 62 77
e 62 82
e 62 83
e 62 88
e 62 89
e 62 91
e 62 92
e 62 93
e 62 94
e 62 96
e 62 101
e 62 103
e 62 108
e 62 113
e 62 114
e 62 115
e 62 119
e 62 126
e 62 129
e 62 130
e 62 137
e 62 140
e 62 141
e 62 144
e 62 146
e 62 149
e 63 64
e 63 67
e 63 70
e 63 73
e 63 78
e 63 88
e 63 89
e 63 94
e 63 95
e 63 100
e 63 103
e 63 108
e 63 126
e 63 133
e 63 141
e 63 143
e 63 145
e 63 147
e 63 150
e 64 73
e 64 82
e 64 83
e 64 84
e 64 88
e 64 91
e 64 92
e 64 93
e 64 95
e 64 100
e 64 102
e 64 108
e 64 109
e 64 114
e 64 117
e 64 119
e 64 126
e 64 127
e 64 131
e 64 132
e 64 136
e 64 143
e 64 146
e 65 67
e 65 71
e 65 72
e 65 80
e 65 81
e 65 82
e 65 83
e 65 84
e 65 85
e 65 91
e 65 93
e 65 94
e 65 97
e 65 99
e 65 103
e 65 107
e 65 111
e 65 112
e 65 117
e 65 121
e 65 122
e 65 125
e 65 138
e 65 143
e 65 144
e 65 145
e 66 69
e 66 74
e 66 77
e 66 81
e 66 83
e 66 93
e 66 96
e 66 100
e 66 101
e 66 105
e 66 108
e 66 110
e 66 117
e 66 120
e 66 124
e 66 128
e 66 130
e 66 132
e 66 140
e 66 143
e 66 144
e 66 147
e 67 75
e 67 78
e 67 80
e 67 81
e 67 82
e 67 84
e 67 90
e 67 93
e 67 97
e 67 99
e 67 102
e 67 107
e 67 122
e 67 124
e 67 128
e 67 133
e 67 135
e 67 137
e 67 138
e 67 140
e 67 141
e 67 146
e 67 148
e 68 70
e 68 75
e 68 77
e 68 79
e 68 92
e 68 97
e 68 103
e 68 104
e 68 106
e 68 109
e 68 111
e 68 116
e 68 117
e 68 119
e 68 121
e 68 123
e 68 124
e 68 127
e 68 128
e 68 130
e 68 132
e 68 134
e 68 135
e 68 137
e 68 138
e 68 140
e 68 141
e 68 145
e 68 146
e 68 148
e 68 149
e 69 73
e 69 78
e 69 82
e 69 84
e 69 85
e 69 87
e 69 89
e 69 90
e 69 99
e 69 101
e 69 112
e 69 113
e 69 118
e 69 119
e 69 121
e 69 125
e 69 136
e 69 138
e 69 141
e 69 143
e 69 147
e 69 148
e 70 80
e 70 82
e 70 86
e 70 88
e 70 90
e 70 92
e 70 100
e 70 101
e 70 102
e 70 104
e 70 106
e 70 109
e 70 113
e 70 116
e 70 119
e 70 122
e 70 127
e 70 139
e 70 143
e 70 144
e 70 145
e 70 146
e 71 72
e 71 73
e 71 76
e 71 79
e 71 80
e 71 90
e 71 92
e 71 93
e 71 97
e 71 110
e 71 115
e 71 116
e 71 118
e 71 120
e 71 123
e 71 125
e 71 127
e 71 134
e 71 136
e 71 140
e 71 141
e 71 142
e 72 78
e 72 81
e 72 93
e 72 97
e 72 102
e 72 103
e 72 106
e 72 109
e 72 111
e 72 112
e 72 113
e 72 115
e 72 118
e 72 127
e 72 128
e 72 129
e 72 137
e 72 138
e 72 142
e 72 143
e 73 77
e 73 79
e 73 85
e 73 86
e 73 90
e 73 93
e 73 96
e 73 97
e 73 99
e 73 100
e 73 108
e 73 111
e 73 119
e 73 120
e 73 121
e 73 127
e 73 128
e 73 130
e 73 131
e 73 132
e 73 137
e 73 138
e 73 140
e 73 141
e 73 147
e 74 75
e 74 82
e 74 83
e 74 90
e 74 91
e 74 94
e 74 95
e 74 98
e 74 104
e 74 107
e 74 111
e 74 117
e 74 118
e 74 122
e 74 128
e 74 131
e 74 136
e 74 138
e 74 144
e 74 149
e 75 84
e 75 86
e 75 90
e 75 101
e 75 103
e 75 104
e 75 105
e 75 109
e 75 111
e 75 115
e 75 116
e 75 120
e 75 124
e 75 133
e 75 134
e 75 140
e 75 145
e 76 78
e 76 85
e 76 86
e 76 90
e 76 94
e 76 96
e 76 104
e 76 110
e 76 112
e 76 119
e 76 125
e 76 128
e 76 141
e 76 143
e 76 144
e 76 146
e 77 81
e 77 86
e 77 87
e 77 98
e 77 99
e 77 101
e 77 106
e 77 111
e 77 112
e 77 114
e 77 119
e 77 127
e 77 128
e 77 129
e 77 130
e 77 135
e 77 138
e 77 140
e 77 144
e 77 145
e 77 148
e 78 88
e 78 90
e 78 94
e 78 95
e 78 96
e 78 98
e 78 99
e 78 104
e 78 106
e 78 107
e 78 110
e 78 111
e 78 112
e 78 114
e 78 117
e 78 118
e 78 120
e 78 121
e 78 126
e 78 130
e 78 134
e 78 136
e 78 138
e 78 142
e 78 144
e 78 147
e 78 149
e 79 81
e 79 85
e 79 86
e 79 88
e 79 91
e 79 92
e 79 94
e 79 95
e 79 98
e 79 99
e 79 107
e 79 110
e 79 112
e 79 124
e 79 127
e 79 137
e 79 138
e 79 140
e 79 143
e 79 145
e 79 148
e 79 149
e 79 150
e 80 81
e 80 83
e 80 85
e 80 89
e 80 90
e 80 91
e 80 94
e 80 96
e 80 99
e 80 106
e 80 107
e 80 111
e 80 113
e 80 127
e 80 137
e 80 139
e 80 150
e 81 88
e 81 94
e 81 97
e 81 103
e 81 112
e 81 113
e 81 115
e 81 116
e 81 118
e 81 119
e 81 125
e 81 129
e 81 130
e 81 139
e 81 142
e 81 146
e 81 148
e 81 150
e 82 86
e 82 88
e 82 90
e 82 92
e 82 93
e 82 107
e 82 110
e 82 115
e 82 117
e 82 124
e 82 125
e 82 134
e 82 139
e 82 140
e 82 141
e 82 142
e 82 149
e 82 150
e 83 84
e 83 85
e 83 91
e 83 97
e 83 99
e 83 100
e 83 101
e 83 102
e 83 103
e 83 108
e 83 109
e 83 110
e 83 114
e 83 118
e 83 128
e 83 129
e 83 145
e 83 146
e 83 148
e 84 92
e 84 95
e 84 103
e 84 104
e 84 114
e 84 115
e 84 117
e 84 118
e 84 119
e 84 122
e 84 126
e 84 134
e 84 135
e 84 143
e 84 145
e 84 146
e 85 93
e 85 94
e 85 95
e 85 97
e 85 98
e 85 99
e 85 100
e 85 107
e 85 108
e 85 110
e 85 116
e 85 121
e 85 125
e 85 126
e 85 130
e 85 131
e 85 132
e 85 135
e 85 136
e 85 140
e 85 149
e 86 89
e 86 97
e 86 99
e 86 101
e 86 105
e 86 106
e 86 108
e 86 109
e 86 114
e 86 116
e 86 122
e 86 126
e 86 133
e 86 140
e 86 141
e 86 146
e 86 147
e 86 148
e 87 91
e 87 93
e 87 96
e 87 97
e 87 104
e 87 106
e 87 107
e 87 109
e 87 116
e 87 119
e 87 121
e 87 125
e 87 136
e 87 137
e 87 139
e 87 145
e 88 90
e 88 97
e 88 99
e 88 100
e 88 102
e 88 106
e 88 112
e 88 115
e 88 116
e 88 117
e 88 118
e 88 119
e 88 121
e 88 122
e 88 124
e 88 126
e 88 129
e 88 130
e 88 131
e 88 133
e 88 138
e 88 139
e 88 145
e 88 150
e 89 98
e 89 99
e 89 101
e 89 102
e 89 105
e 89 107
e 89 117
e 89 125
e 89 127
e 89 135
e 89 141
e 89 145
e 89 147
e 89 149
e 90 91
e 90 97
e 90 99
e 90 103
e 90 104
e 90 108
e 90 111
e 90 113
e 90 116
e 90 121
e 90 124
e 90 126
e 90 133
e 90 136
e 90 137
e 90 141
e 91 93
e 91 97
e 91 103
e 91 111
e 91 112
e 91 115
e 91 116
e 91 117
e 91 118
e 91 122
e 91 130
e 91 131
e 91 132
e 91 134
e 91 135
e 91 136
e 91 141
e 91 142
e 91 145
e 91 146
e 91 147
e 91 148
e 92 95
e 92 96
e 92 99
e 92 100
e 92 105
e 92 110
e 92 113
e 92 115
e 92 125
e 92 135
e 92 141
e 92 143
e 92 150
e 93 106
e 93 112
e 93 114
e 93 119
e 93 121
e 93 125
e 93 129
e 93 131
e 93 132
e 93 133
e 93 137
e 93 140
e 93 148
e 93 149
e 94 99
e 94 100
e 94 102
e 94 103
e 94 106
e 94 107
e 94 113
e 94 114
e 94 119
e 94 120
e 94 122
e 94 123
e 94 126
e 94 128
e 94 129
e 94 132
e 94 134
e 94 136
e 94 140
e 94 141
e 94 142
e 94 143
e 94 149
e 95 104
e 95 107
e 95 109
e 95 113
e 95 118
e 95 121
e 95 127
e 95 131
e 95 132
e 95 133
e 95 135
e 95 143
e 95 148
e 95 149
e 96 98
e 96 114
e 96 116
e 96 121
e 96 123
e 96 127
e 96 130
e 96 139
e 96 141
e 96 144
e 96 145
e 96 148
e 97 100
e 97 102
e 97 103
e 97 104
e 97 108
e 97 111
e 97 112
e 97 116
e 97 125
e 97 129
e 97 130
e 97 133
e 97 135
e 97 138
e 97 139
e 97 140
e 97 142
e 97 149
e 98 101
e 98 107
e 98 108
e 98 110
e 98 111
e 98 112
e 98 113
e 98 114
e 98 119
e 98 120
e 98 121
e 98 126
e 98 128
e 98 143
e 98 150
e 99 102
e 99 104
e 99 111
e 99 114
e 99 115
e 99 116
e 99 121
e 99 122
e 99 129
e 99 131
e 99 133
e 99 135
e 99 140
e 99 142
e 99 148
e 99 149
e 100 103
e 100 106
e 100 107
e 100 112
e 100 113
e 100 115
e 100 122
e 100 123
e 100 125
e 100 133
e 100 139
e 100 142
e 100 145
e 100 146
e 101 102
e 101 114
e 101 116
e 101 121
e 101 131
e 101 134
e 101 135
e 101 139
e 101 142
e 102 107
e 102 111
e 102 114
e 102 117
e 102 119
e 102 121
e 102 122
e 102 126
e 102 128
e 102 135
e 102 140
e 102 142
e 103 104
e 103 105
e 103 106
e 103 108
e 103 112
e 103 113
e 103 124
e 103 127
e 103 128
e 103 129
e 103 131
e 103 133
e 103 136
e 103 140
e 103 141
e 103 144
e 103 148
e 103 149
e 104 106
e 104 118
e 104 122
e 104 123
e 104 124
e 104 125
e 104 133
e 104 134
e 104 135
e 104 138
e 104 139
e 104 142
e 104 144
e 104 149
e 105 109
e 105 116
e 105 120
e 105 121
e 105 123
e 105 124
e 105 130
e 105 134
e 105 135
e 105 142
e 105 143
e 105 147
e 105 149
e 106 109
e 106 110
e 106 115
e 106 117
e 106 118
e 106 127
e 106 129
e 106 135
e 106 137
e 106 138
e 106 146
e 106 147
e 106 148
e 107 115
e 107 116
e 107 117
e 107 121
e 107 128
e 107 129
e 107 132
e 107 138
e 107 140
e 107 150
e 108 109
e 108 111
e 108 112
e 108 119
e 108 121
e 108 123
e 108 130
e 108 134
e 108 135
e 108 139
e 108 146
e 108 147
e 108 148
e 108 149
e 109 123
e 109 128
e 109 129
e 109 131
e 109 133
e 109 134
e 109 135
e 109 140
e 109 143
e 109 145
e 109 146
e 109 149
e 110 111
e 110 112
e 110 116
e 110 122
e 110 139
e 110 145
e 110 149
e 111 112
e 111 114
e 111 115
e 111 117
e 111 121
e 111 123
e 111 127
e 111 137
e 111 141
e 111 143
e 111 144
e 111 146
e 111 148
e 111 150
e 112 113
e 112 118
e 112 125
e 112 129
e 112 130
e 112 134
e 112 136
e 112 137
e 112 140
e 112 148
e 113 114
e 113 117
e 113 119
e 113 120
e 113 127
e 113 133
e 113 136
e 113 137
e 113 138
e 113 142
e 114 116
e 114 117
e 114 123
e 114 128
e 114 131
e 114 138
e 114 140
e 114 145
e 114 146
e 114 149
e 114 150
e 115 116
e 115 117
e 115 121
e 115 128
e 115 133
e 115 134
e 115 136
e 115 138
e 115 141
e 115 142
e 115 144
e 115 149
e 116 121
e 116 122
e 116 123
e 116 125
e 116 127
e 116 129
e 116 130
e 116 133
e 116 138
e 116 142
e 117 120
e 117 123
e 117 124
e 117 128
e 117 130
e 117 134
e 117 135
e 117 142
e 118 119
e 118 121
e 118 122
e 118 127
e 118 128
e 118 129
e 118 134
e 118 136
e 118 141
e 118 142
e 118 144
e 118 146
e 118 147
e 118 150
e 119 120
e 119 127
e 119 130
e 119 131
e 119 138
e 119 141
e 119 142
e 119 143
e 119 145
e 120 122
e 120 124
e 120 128
e 120 129
e 120 130
e 120 132
e 120 135
e 120 137
e 120 138
e 120 139
e 120 144
e 120 147
e 120 149
e 120 150
e 121 128
e 121 132
e 121 133
e 121 134
e 121 135
e 121 136
e 121 137
e 121 138
e 121 142
e 121 143
e 121 146
e 121 147
e 122 123
e 122 128
e 122 131
e 122 132
e 122 133
e 122 134
e 122 135
e 122 136
e 122 139
e 122 145
e 123 124
e 123 127
e 123 132
e 123 136
e 123 145
e 124 126
e 124 128
e 124 129
e 124 130
e 124 136
e 124 139
e 124 143
e 124 144
e 124 145
e 124 147
e 124 148
e 125 129
e 125 130
e 125 133
e 125 135
e 125 137
e 125 138
e 125 139
e 125 140
e 125 141
e 125 142
e 125 144
e 125 145
e 125 146
e 125 149
e 126 127
e 126 144
e 126 145
e 126 147
e 127 136
e 127 137
e 127 138
e 127 140
e 127 145
e 127 147
e 127 148
e 128 138
e 128 139
e 128 143
e 128 148
e 128 149
e 129 130
e 129 131
e 129 132
e 129 133
e 129 134
e 129 141
e 129 143
e 129 148
e 129 149
e 129 150
e 130 132
e 130 133
e 130 134
e 130 136
e 130 138
e 130 145
e 130 146
e 130 147
e 130 149
e 131 134
e 131 135
e 131 140
e 131 146
e 131 147
e 131 148
e 132 139
e 132 140
e 132 141
e 132 148
e 132 149
e 133 134
e 133 139
e 133 142
e 133 145
e 133 146
e 133 148
e 133 149
e 134 136
e 134 139
e 134 140
e 134 149
e 135 138
e 135 140
e 135 146
e 136 138
e 136 139
e 136 140
e 136 148
e 137 142
e 137 146
e 137 148
e 137 150
e 138 143
e 138 148
e 139 140
e 139 141
e 139 142
e 139 148
e 139 149
e 139 150
e 140 142
e 140 144
e 140 149
e 140 150
e 141 144
e 141 145
e 141 148
e 141 150
e 142 143
e 142 145
e 143 148
e 143 149
e 144 145
e 144 146
e 144 147
e 144 149
e 145 147
e 146 147
e 146 148
